************************************************************************
file with basedata            : mm56_.bas
initial value random generator: 363759672
************************************************************************
projects                      :  1
jobs (incl. supersource/sink ):  12
horizon                       :  84
RESOURCES
  - renewable                 :  2   R
  - nonrenewable              :  2   N
  - doubly constrained        :  0   D
************************************************************************
PROJECT INFORMATION:
pronr.  #jobs rel.date duedate tardcost  MPM-Time
    1     10      0       14        1       14
************************************************************************
PRECEDENCE RELATIONS:
jobnr.    #modes  #successors   successors
   1        1          3           2   3   4
   2        3          3           5   8   9
   3        3          2          10  11
   4        3          2           5   9
   5        3          1           6
   6        3          1           7
   7        3          2          10  11
   8        3          1          10
   9        3          1          12
  10        3          1          12
  11        3          1          12
  12        1          0        
************************************************************************
REQUESTS/DURATIONS:
jobnr. mode duration  R 1  R 2  N 1  N 2
------------------------------------------------------------------------
  1      1     0       0    0    0    0
  2      1     3       9    9    8   10
         2     8       8    8    7    9
         3     8       7    8    7   10
  3      1     2       7    9    9    8
         2     6       5    7    7    5
         3     8       2    5    4    1
  4      1     6       9    5    5    4
         2     7       7    5    3    4
         3     9       7    4    1    3
  5      1     2       5    6    9    7
         2     4       5    6    8    6
         3     6       4    5    7    5
  6      1     2       1    8    7    7
         2     4       1    6    7    5
         3     6       1    4    6    4
  7      1     3       6    5    8    7
         2     7       6    3    7    6
         3     7       6    4    5    4
  8      1     9       7    8    5    7
         2    10       5    5    4    5
         3    10       4    7    4    5
  9      1     3       8    6    9    9
         2     5       8    4    4    5
         3    10       7    2    1    3
 10      1     1       5    5    3    5
         2     9       4    4    3    3
         3    10       4    4    1    2
 11      1     1       6    9    9   10
         2     5       5    6    6    6
         3    10       5    4    6    6
 12      1     0       0    0    0    0
************************************************************************
RESOURCEAVAILABILITIES:
  R 1  R 2  N 1  N 2
   20   19   72   74
************************************************************************
MAXIMAL LAGS:
from  to  type  delay
    1   12   ES      0
    1    2   ES      0
    2   12   ES      0
    1    3   ES      0
    3   12   ES      0
    1    4   ES      0
    4   12   ES      0
    1    5   ES      0
    5   12   ES      0
    1    6   ES      0
    6   12   ES      0
    1    7   ES      0
    7   12   ES      0
    1    8   ES      0
    8   12   ES      0
    1    9   ES      0
    9   12   ES      0
    1   10   ES      0
   10   12   ES      0
    1   11   ES      0
   11   12   ES      0
    1   12   ES      0
    2    5   SS     -8
    2    5   SE      3
    2    5   ES      7
    2    5   EE      4
    2    8   SS      1
    2    8   SE      8
    2    8   ES     12
    2    8   EE      8
    2    9   SS     -7
    2    9   SE     -5
    2    9   ES      7
    2    9   EE      4
    3   10   SS     -3
    3   10   SE      3
    3   10   ES     12
    3   10   EE    -10
    3   11   SS      1
    3   11   SE      7
    3   11   ES    -12
    3   11   EE      1
    4    5   SS    -10
    4    5   SE      5
    4    5   ES    -10
    4    5   EE     10
    4    9   SS     12
    4    9   SE     -8
    4    9   ES     12
    4    9   EE      8
    5    6   SS    -11
    5    6   SE     -1
    5    6   ES     -4
    5    6   EE      0
    6    7   SS     -4
    6    7   SE      2
    6    7   ES      8
    6    7   EE     -2
    7   10   SS     -3
    7   10   SE      5
    7   10   ES      7
    7   10   EE     -2
    7   11   SS     -3
    7   11   SE      3
    7   11   ES      4
    7   11   EE      3
    8   10   SS      0
    8   10   SE     12
    8   10   ES     10
    8   10   EE      6
************************************************************************
